101305
45,80,62,70,14,29,10,1,64,73,13,37,18,65,50,4,63,39,52,41,78,69,15,25,42,55,23,12,3,43,57,34,49,47,60,81,72,51,27,7,56,17,58,74,32,82,75,40,11,33,16,38,2,30,35,28,79,6,61,83,8,53,59,68,44,22,5,19,31,24,48,21,9,77,20,67,76,26,36,66,71,54,46,45